NAME : in_house_9_9
TYPE : TSP
DIMENSION : 9
EDGE_WEIGHT_TYPE : EXPLICIT
EDGE_WEIGHT_FORMAT : UPPER_ROW
COMMENT : INVERSION_SHIFT=5
EDGE_WEIGHT_SECTION
65
17
20
16
81
43
44
18
3
22
40
79
35
63
71
63
79
9
24
43
64
70
59
80
67
1
81
56
73
62
56
53
8
78
70
15
